32	0

0	2	2	3
8	1	4
9	1	4
9	1	5
6	1	6
8	1	7
9	1	8
5	1	9
2	1	10
4	1	11
10	2	12	13
10	1	15
8	1	14
2	1	15
8	1	16
9	1	17
8	1	18
6	1	19
6	1	20
7	1	21
2	2	22	23
1	2	24	25
2	2	24	25
6	1	26
9	1	26
6	1	27
6	1	28
9	1	29
3	1	30
8	1	31
1	1	32
0	0
